cases/pglib-opf/pglib_opf_case162_ieee_dtc.m
ipopt
ACP
[info | PowerModels]: removing 1 cost terms from generator 4: [1968.6834999999999, 0.0]
[info | PowerModels]: removing 1 cost terms from generator 1: [2353.2556, 0.0]
[info | PowerModels]: removing 1 cost terms from generator 12: [1135.4352000000001, 0.0]
[info | PowerModels]: removing 1 cost terms from generator 2: [3040.9326, 0.0]
[info | PowerModels]: removing 1 cost terms from generator 6: [611.1723, 0.0]
[info | PowerModels]: removing 1 cost terms from generator 11: [1523.4482, 0.0]
[info | PowerModels]: removing 1 cost terms from generator 5: [3848.9977000000003, 0.0]
[info | PowerModels]: removing 1 cost terms from generator 7: [2293.4184, 0.0]
[info | PowerModels]: removing 1 cost terms from generator 8: [2974.7826, 0.0]
[info | PowerModels]: removing 1 cost terms from generator 10: [737.3082, 0.0]
[info | PowerModels]: removing 1 cost terms from generator 9: [2037.7006000000001, 0.0]
[info | PowerModels]: removing 1 cost terms from generator 3: [1904.0386, 0.0]

******************************************************************************
This program contains Ipopt, a library for large-scale nonlinear optimization.
 Ipopt is released as open source code under the Eclipse Public License (EPL).
         For more information visit http://projects.coin-or.org/Ipopt
******************************************************************************

This is Ipopt version 3.13.2, running with linear solver mumps.
NOTE: Other linear solvers might be more efficient (see Ipopt documentation).

Number of nonzeros in equality constraint Jacobian...:     6875
Number of nonzeros in inequality constraint Jacobian.:     2256
Number of nonzeros in Lagrangian Hessian.............:    12530

Total number of variables............................:     1484
                     variables with only lower bounds:        0
                variables with lower and upper bounds:     1322
                     variables with only upper bounds:        0
Total number of equality constraints.................:     1461
Total number of inequality constraints...............:     1128
        inequality constraints with only lower bounds:      280
   inequality constraints with lower and upper bounds:        0
        inequality constraints with only upper bounds:      848

iter    objective    inf_pr   inf_du lg(mu)  ||d||  lg(rg) alpha_du alpha_pr  ls
   0  2.4429149e+02 2.00e+01 1.58e+01  -1.0 0.00e+00    -  0.00e+00 0.00e+00   0
   1  1.3186410e+04 1.82e+01 7.76e+01  -1.0 7.18e+00    -  1.40e-03 9.06e-02h  2
   2  2.6925630e+04 1.46e+01 6.25e+01  -1.0 3.65e+01    -  2.41e-02 1.98e-01h  2
   3  4.2570131e+04 9.96e+00 4.27e+01  -1.0 3.26e+01    -  2.72e-01 3.17e-01H  1
   4  4.2859483e+04 9.89e+00 1.33e+02  -1.0 3.92e+01    -  5.27e-01 7.42e-03h  1
   5  5.3959679e+04 7.71e+00 3.42e+02  -1.0 4.23e+01    -  5.31e-01 2.20e-01h  1
   6  6.0183007e+04 6.56e+00 3.38e+02  -1.0 4.50e+01    -  5.19e-01 1.49e-01h  1
   7  6.2567452e+04 6.16e+00 4.59e+02  -1.0 5.73e+01    -  4.73e-01 6.16e-02h  1
   8  6.9965621e+04 5.09e+00 2.98e+02  -1.0 6.64e+01    -  6.87e-02 1.74e-01h  1
   9  7.4011168e+04 4.52e+00 5.03e+02  -1.0 1.08e+02    -  1.86e-02 1.12e-01h  1
iter    objective    inf_pr   inf_du lg(mu)  ||d||  lg(rg) alpha_du alpha_pr  ls
  10  7.8333307e+04 3.85e+00 4.29e+02  -1.0 9.99e+01    -  1.79e-01 1.49e-01h  1
  11  8.5755662e+04 2.72e+00 3.03e+02  -1.0 1.02e+02    -  4.38e-01 2.93e-01h  1
  12  9.2213434e+04 1.76e+00 2.15e+02  -1.0 9.13e+01    -  7.56e-01 3.52e-01h  1
  13  9.5001369e+04 1.40e+00 2.92e+02  -1.0 4.38e+01    -  1.00e+00 2.04e-01h  1
  14  9.5949848e+04 1.29e+00 3.14e+02  -1.0 4.24e+01    -  1.05e-01 8.23e-02h  1
  15  1.0025621e+05 8.05e-01 1.58e+02  -1.0 4.39e+01    -  3.02e-02 3.75e-01h  1
  16  1.0597728e+05 1.22e+00 5.52e+01  -1.0 4.28e+01    -  1.00e+00 7.71e-01h  1
  17  1.0647345e+05 4.64e+00 1.17e+02  -1.0 1.91e+01    -  1.00e+00 2.65e-01h  1
  18  1.0711108e+05 2.08e+00 1.29e+02  -1.0 1.07e+00    -  7.84e-01 4.48e-01h  1
  19  1.0738151e+05 1.84e+00 5.31e+01  -1.0 2.83e+00    -  2.76e-01 3.17e-01h  1
iter    objective    inf_pr   inf_du lg(mu)  ||d||  lg(rg) alpha_du alpha_pr  ls
  20  1.0816662e+05 2.31e-03 1.90e-01  -1.0 8.93e-01    -  1.00e+00 1.00e+00h  1
  21  1.0816366e+05 6.73e-05 9.81e-02  -1.0 2.11e-01    -  1.00e+00 1.00e+00h  1
  22  1.0809996e+05 2.27e-04 1.73e+01  -2.5 3.99e-01    -  8.02e-01 6.57e-01f  1
  23  1.0807856e+05 5.56e-03 7.11e+00  -2.5 3.58e-01    -  1.00e+00 8.88e-01f  1
  24  1.0807763e+05 2.54e-05 4.88e-03  -2.5 5.13e-02    -  1.00e+00 1.00e+00h  1
  25  1.0807572e+05 7.36e-05 9.90e-04  -3.8 2.51e-02    -  1.00e+00 1.00e+00h  1
  26  1.0807564e+05 1.02e-06 9.93e-06  -5.7 2.68e-03    -  1.00e+00 1.00e+00h  1
  27  1.0807564e+05 1.33e-11 2.43e-09  -8.6 4.02e-05    -  1.00e+00 1.00e+00h  1

Number of Iterations....: 27

                                   (scaled)                 (unscaled)
Objective...............:   2.8078905762513346e+03    1.0807564369843062e+05
Dual infeasibility......:   2.4327832091021397e-09    9.3637769764327555e-08
Constraint violation....:   1.3281820088195673e-11    1.3281820088195673e-11
Complementarity.........:   5.0080662532907219e-09    1.9276035490363606e-07
Overall NLP error.......:   5.0080662532907219e-09    1.9276035490363606e-07


Number of objective function evaluations             = 37
Number of objective gradient evaluations             = 28
Number of equality constraint evaluations            = 37
Number of inequality constraint evaluations          = 37
Number of equality constraint Jacobian evaluations   = 28
Number of inequality constraint Jacobian evaluations = 28
Number of Lagrangian Hessian evaluations             = 27
Total CPU secs in IPOPT (w/o function evaluations)   =      1.747
Total CPU secs in NLP function evaluations           =      2.408

EXIT: Optimal Solution Found.
Time to Solution........:4.875218152999878
